1961.68 0
0 68 32 46 37 42 38 56 79 77 80 51 0
0 53 59 34 48 47 36 31 33 40 39 41 28 30 67 58 44 29 60 0
0 19 61 25 0
0 97 91 96 90 92 17 0
0 70 72 71 69 78 76 55 52 0
0 24 75 74 73 14 22 0
0 57 62 63 43 54 45 35 49 65 0
0 26 20 18 99 23 0
0 15 13 83 85 81 82 86 84 87 50 66 64 0
0 27 21 7 100 6 8 9 2 1 10 5 3 4 16 0
0 12 95 98 94 88 89 93 11 0
